(declare-datatypes () ((Nat (Z) (S (p Nat)))))
(declare-fun acc_plus (Nat Nat) Nat)
(assert
  (not (forall ((x Nat) (y Nat)) (= (acc_plus x y) (acc_plus y x)))))
(assert
  (forall ((x Nat) (y Nat))
    (= (acc_plus x y) (ite (is-S x) (acc_plus (p x) (S y)) y))))
(check-sat)
